15
1 0 11
2 0 9
3 1 8
3 2 10
5 2 5
6 5 7
7 1 5
7 3 5
7 4 9
7 6 9
8 1 11
8 2 11
8 7 2
9 0 8
9 2 4
9 3 1
9 5 6
9 6 4
9 7 5
9 8 5
10 1 10
10 2 7
10 5 6
10 6 7
10 9 4
11 1 2
11 2 2
11 3 2
11 4 2
11 5 7
11 6 9
11 10 8
12 1 7
12 2 10
12 4 1
12 7 4
12 8 5
12 10 6
13 4 7
13 5 9
13 6 6
13 7 4
13 8 11
13 9 4
13 10 8
13 11 4
13 12 10
14 5 7
14 10 8
14 11 11
